CapLotSizing_PM/src/Instancias/TCLSLT/6i6p6m/NBB08.OUT
 CG ITER, OVMR, OVMRUB =           1   11418.0390625    6925.3999023
 CG ITER, OVMR, OVMRUB =           2    7799.2133789    6925.3999023
 CG ITER, OVMR, OVMRUB =           3    7799.2133789    6925.3999023
 CG ITER, OVMR, OVMRUB =           4    7799.2133789    6925.3999023
 CG ITER, OVMR, OVMRUB =           5    7799.2133789    6925.3999023
 CG ITER, OVMR, OVMRUB =           6    7799.2133789    6925.3999023
 CG ITER, OVMR, OVMRUB =           7    7799.2133789    6925.3999023
 CG ITER, OVMR, OVMRUB =           8    7799.2133789    6925.3999023
 CG ITER, OVMR, OVMRUB =           9    7799.2133789    6925.3999023
 CG ITER, OVMR, OVMRUB =          10    7799.2133789    6925.3999023
OVLB =    7799.2133789 OVLUB =    6925.3999023 TIME =       0.5700000
